&projwfc
    prefix='CO2_paw_12A_nspin2'
    outdir='./'
    filpdos='CO2_paw_12A_nspin2.pdos'
    DeltaE=0.01
    ngauss=0
    degauss=0.01
    Emin=-50.0, Emax=50.0
 /

