 &control
    calculation='scf'
    restart_mode='from_scratch',
    pseudo_dir = '/work/ablancar/QE/PSEUDO',
    outdir='./'
    prefix='CO2_paw_12A_nspin2'
    wf_collect = .true.
    tprnfor = .true.
    tstress=.true.
    nstep=100
    etot_conv_thr=1.0D-5
    forc_conv_thr=1.0D-4
    verbosity='high'
    disk_io='default'
    max_seconds=86000


 /
 &system
    ibrav = 1, 
    celldm(1) =12.0, 
    nat=  3, 
    ntyp= 2,
    nbnd= 10 ,
    ecutwfc = 95, ecutrho = 800
    occupations='smearing', smearing='mv', degauss=0.04,
    input_DFT='PBE'
    nspin =2
    starting_magnetization(1)=1.0
    starting_magnetization(2)=-1.0

 /
 &electrons
    mixing_beta = 0.7
    conv_thr =  1.0d-8
 /
 &ions
 /
ATOMIC_SPECIES
 C  12   C.pbe-n-kjpaw_psl.0.1.upf
 O  16.0 O.pbe-n-kjpaw_psl.0.1.UPF
ATOMIC_POSITIONS (angstrom)
C        0.000000000   0.199999240   0.000000000
O       -0.000000000   0.200000380   1.170063158
O        0.000000000   0.200000380  -1.170063158
K_POINTS (automatic)
1 1 1 0 0 0

