 &projwfc
    prefix='Fe_100_2x2_H2O_top_5ML'
    outdir='./results_Fe_100_2x2_H2O_top_5ML_dos'
    filpdos='Fe_100_2x2_H2O_top_5ML'
    DeltaE=0.01
    ngauss=0
    degauss=0.01
    Emin=-50.0, Emax=50.0
 /
