&control
    calculation='relax'
    restart_mode='from_scratch',
    pseudo_dir = '/work/e05/e05/ablar/QE_PSEUDO',
    outdir='./results_Fe_100_2x2_dos'
    prefix='Fe_100_2x2'
    wf_collect = .true.
    tprnfor = .true.
    tstress=.true.
    nstep=1000
    etot_conv_thr=1.0D-5
    forc_conv_thr=1.0D-4
    verbosity='high'
    disk_io='default'
    max_seconds=86000

 /
 &system
    ibrav=0,
    celldm(1)=1.889726878
    nat=20 ,
    ntyp= 1,
    ecutwfc = 95, ecutrho = 800,
    occupations='smearing', smearing='mv', degauss=0.04,
    nspin=2,
    starting_magnetization(1)= 0.6
    input_DFT='PBE'
    lda_plus_u = .true.,
    Hubbard_U(1) = 1.d-10,
 /
 &electrons
    diagonalization='david'
    electron_maxstep=1000
    conv_thr = 1.0e-8
    mixing_beta = 0.5
    mixing_mode='local-TF'
 /
 &ions
 /
 &cell
   press=0.0
   press_conv_thr=0.1
 /
ATOMIC_SPECIES
Fe 55.85 Fe.pbe-spn-kjpaw_psl.0.2.1.UPF
ATOMIC_POSITIONS (angstrom)
Fe       0.000000000   0.000000000  -2.832506000    0   0   0
Fe       0.000000000   2.832506000  -2.832506000    0   0   0
Fe       2.832506000   0.000000000  -2.832506000    0   0   0
Fe       2.832506000   2.832506000  -2.832506000    0   0   0
Fe       1.416253000   1.416253000  -1.416253000    0   0   0
Fe       1.416253000  -1.416253000  -1.416253000    0   0   0
Fe      -1.416253000   1.416253000  -1.416253000    0   0   0
Fe      -1.416253000  -1.416253000  -1.416253000    0   0   0
Fe       0.000000000   0.000000000   0.000000000    0   0   0
Fe       0.000000000   2.832506000   0.000000000    0   0   0
Fe       2.832506000   0.000000000   0.000000000    0   0   0
Fe       2.832506000   2.832506000   0.000000000    0   0   0
Fe       1.416256023   1.416256023   1.432898813
Fe       1.416256023  -1.416256023   1.432898813
Fe      -1.416256023   1.416256023   1.432898813
Fe      -1.416256023  -1.416256023   1.432898813
Fe       0.000000000   0.000000000   2.828874784
Fe       0.000000000   2.832506000   2.828872452
Fe       2.832506000   0.000000000   2.828872452
Fe       2.832506000   2.832506000   2.828899099
CELL_PARAMETERS
   0.566501200000E+01   0.000000000000E+00   0.000000000000E+00
   0.627132595447E-15   0.566501200000E+01   0.000000000000E+00
   0.000000000000E+00   0.000000000000E+00   18.00000000000
K_POINTS (automatic)
4 4 1 0 0 0
