&control
    calculation='scf'
    restart_mode='from_scratch',
    pseudo_dir = '/work/e05/e05/ablar/QE_PSEUDO',
    outdir='./results_Fe_110_2x2_SB_O_LB_CO_25ML_dos'
    prefix='Fe_110_2x2_SB_O_LB_CO_25ML'
    wf_collect = .true.
    tprnfor = .true.
    tstress=.true.
    nstep=1000
    etot_conv_thr=1.0D-5
    forc_conv_thr=1.0D-4
    verbosity='high'
    disk_io='default'
    max_seconds=86000

 /
 &system
    ibrav=0,
    celldm(1)=1.889726878
    nat=23 ,
    ntyp= 3,
    ecutwfc = 95, ecutrho = 800,
    occupations='smearing', smearing='mv', degauss=0.04,
    nspin=2,
    starting_magnetization(1)= 0.6
    input_DFT='PBE'
    lda_plus_u = .true.,
    Hubbard_U(1) = 1.d-10,
 /
 &electrons
    diagonalization='david'
    electron_maxstep=1000
    conv_thr = 1.0e-8
    mixing_beta = 0.5
    mixing_mode='local-TF'
 /
 &ions
 /
 &cell
   press=0.0
   press_conv_thr=0.1
 /
ATOMIC_SPECIES
Fe 55.85 Fe.pbe-spn-kjpaw_psl.0.2.1.UPF
C 12 C.pbe-n-kjpaw_psl.0.1.upf
O 16 O.pbe-n-kjpaw_psl.0.1.UPF
ATOMIC_POSITIONS (angstrom)
Fe       0.000000000   0.000000000  -4.005760000    0   0   0
Fe      -0.817670000   2.312730000  -4.005760000    0   0   0
Fe       2.453020000   0.000000000  -4.005760000    0   0   0
Fe      -3.270690000   2.312730000  -4.005760000    0   0   0
Fe       0.817670000   1.156360000  -2.002890000    0   0   0
Fe      -0.817670000  -1.156360000  -2.002890000    0   0   0
Fe       1.635350000  -1.156360000  -2.002890000    0   0   0
Fe      -1.635350000   1.156360000  -2.002890000    0   0   0
Fe       0.000000000   0.000000000   0.000000000    0   0   0
Fe      -0.817670000   2.312730000   0.000000000    0   0   0
Fe       2.453020000   0.000000000   0.000000000    0   0   0
Fe      -3.270690000   2.312730000   0.000000000    0   0   0
Fe       0.828383049   1.169485367   1.979332506
Fe      -0.817825333  -1.162125895   1.963997427
Fe       1.644936206  -1.141895200   2.007088237
Fe      -1.630666524   1.160626144   1.999698043
Fe      -0.000660583  -0.033476293   3.903410134
Fe      -0.807539396   2.297969713   4.040939640
Fe       2.513508369   0.076097204   4.124672918
Fe      -3.226415180   2.426513308   3.953551174
O        1.861148160   0.298193259   6.010762553
C        0.878380079   0.826612414   5.379668008
O        0.463172708   2.075265315   5.608047238
CELL_PARAMETERS
   0.490604430474E+01   0.000000000000E+00   0.000000000000E+00
  -0.163534810158E+01   0.462546292891E+01   0.000000000000E+00
   0.0                  0.0                 20.500000
K_POINTS (automatic)
4 4 1 0 0 0
