&control
    calculation='scf'
    restart_mode='from_scratch',
    pseudo_dir = '/work/e05/e05/ablar/QE_PSEUDO',
    outdir='./results_Fe_110_2x2_SB_CO_O_25ML_dos'
    prefix='Fe_110_2x2_SB_CO_O_25ML'
    wf_collect = .true.
    tprnfor = .true.
    tstress=.true.
    nstep=1000
    etot_conv_thr=1.0D-5
    forc_conv_thr=1.0D-4
    verbosity='high'
    disk_io='default'
    max_seconds=86000

 /
 &system
    ibrav=0,
    celldm(1)=1.889726878
    nat=23 ,
    ntyp= 3,
    ecutwfc = 95, ecutrho = 800,
    occupations='smearing', smearing='mv', degauss=0.04,
    nspin=2,
    starting_magnetization(1)= 0.6
    input_DFT='PBE'
    lda_plus_u = .true.,
    Hubbard_U(1) = 1.d-10,
    nbnd=202,
 /
 &electrons
    diagonalization='david'
    electron_maxstep=1000
    conv_thr = 1.0e-8
    mixing_beta = 0.5
    mixing_mode='local-TF'
 /
 &ions
 /
 &cell
   press=0.0
   press_conv_thr=0.1
 /
ATOMIC_SPECIES
Fe 55.85 Fe.pbe-spn-kjpaw_psl.0.2.1.UPF
C 12 C.pbe-n-kjpaw_psl.0.1.upf
O 16 O.pbe-n-kjpaw_psl.0.1.UPF
ATOMIC_POSITIONS (angstrom)
Fe       0.000000000   0.000000000  -4.005760000    0   0   0
Fe      -0.817670000   2.312730000  -4.005760000    0   0   0
Fe       2.453020000   0.000000000  -4.005760000    0   0   0
Fe      -3.270690000   2.312730000  -4.005760000    0   0   0
Fe       0.817670000   1.156360000  -2.002890000    0   0   0
Fe      -0.817670000  -1.156360000  -2.002890000    0   0   0
Fe       1.635350000  -1.156360000  -2.002890000    0   0   0
Fe      -1.635350000   1.156360000  -2.002890000    0   0   0
Fe       0.000000000   0.000000000   0.000000000    0   0   0
Fe      -0.817670000   2.312730000   0.000000000    0   0   0
Fe       2.453020000   0.000000000   0.000000000    0   0   0
Fe      -3.270690000   2.312730000   0.000000000    0   0   0
Fe       0.823109834   1.151892505   1.997361078
Fe      -0.820204620  -1.155127528   2.003621900
Fe       1.641398052  -1.155877620   1.985054171
Fe      -1.634176381   1.149594034   1.985189521
Fe       0.035500510  -0.022961276   4.038360147
Fe      -0.821039452   2.314407262   3.915770376
Fe       2.531610765  -0.056448934   4.056106372
Fe      -3.237688744   2.286007254   4.038636344
C        1.853925105   3.891943631   5.494606412
O        3.704045877  -0.885436396   6.644355308
O        1.269749881   0.835932105   5.119089947
CELL_PARAMETERS
   0.490604430474E+01   0.000000000000E+00   0.000000000000E+00
  -0.163534810158E+01   0.462546292891E+01   0.000000000000E+00
   0.0                  0.0                 20.500000
K_POINTS (automatic)
4 4 1 0 0 0
