 &projwfc
    prefix='Fe_110_2x2_H2S_SB'
    outdir='./results_Fe_110_2x2_H2S_SB_dos'
    filpdos='Fe_110_2x2_H2S_SB'
    DeltaE=0.01
    ngauss=0
    degauss=0.01
    Emin=-50.0, Emax=50.0
 /
