&control
    calculation='scf'
    restart_mode='from_scratch',
    pseudo_dir = '/work/e05/e05/ablar/QE_PSEUDO',
    outdir='./results_Fe_110_2x2_H2S_SB_dos'
    prefix='Fe_110_2x2_H2S_SB'
    wf_collect = .true.
    tprnfor = .true.
    tstress=.true.
    nstep=1000
    etot_conv_thr=1.0D-5
    forc_conv_thr=1.0D-4
    verbosity='high'
    disk_io='default'
    max_seconds=86000

 /
 &system
    ibrav=0,
    celldm(1)=1.889726878
    nat=23 ,
    ntyp= 3,
    ecutwfc = 95, ecutrho = 800,
    occupations='smearing', smearing='mv', degauss=0.04,
    nspin=2,
    starting_magnetization(1)= 0.6
    input_DFT='PBE'
    lda_plus_u = .true.,
    Hubbard_U(1) = 1.d-10,
 /
 &electrons
    diagonalization='david'
    electron_maxstep=1000
    conv_thr = 1.0e-8
    mixing_beta = 0.5
    mixing_mode='local-TF'
 /
 &ions
 /
 &cell
   press=0.0
   press_conv_thr=0.1
 /
ATOMIC_SPECIES
Fe 55.85 Fe.pbe-spn-kjpaw_psl.0.2.1.UPF
S  32 S.pbe-n-kjpaw_psl.0.1.UPF
H  1  H.pbe-kjpaw_psl.0.1.upf
ATOMIC_POSITIONS (angstrom)
Fe       0.000000000   0.000000000  -4.005760000    0   0   0
Fe      -0.817670000   2.312730000  -4.005760000    0   0   0
Fe       2.453020000   0.000000000  -4.005760000    0   0   0
Fe      -3.270690000   2.312730000  -4.005760000    0   0   0
Fe       0.817670000   1.156360000  -2.002890000    0   0   0
Fe      -0.817670000  -1.156360000  -2.002890000    0   0   0
Fe       1.635350000  -1.156360000  -2.002890000    0   0   0
Fe      -1.635350000   1.156360000  -2.002890000    0   0   0
Fe       0.000000000   0.000000000   0.000000000    0   0   0
Fe      -0.817670000   2.312730000   0.000000000    0   0   0
Fe       2.453020000   0.000000000   0.000000000    0   0   0
Fe      -3.270690000   2.312730000   0.000000000    0   0   0
Fe       0.814125386   1.150154562   1.982653616
Fe      -0.810540195  -1.147865278   1.985564429
Fe       1.628014424  -1.163409505   1.985606750
Fe      -1.632171617   1.164076766   1.982953338
Fe      -0.005282237  -0.028658641   4.012364421
Fe      -0.812917874   2.344013779   4.013000419
Fe       2.434352461  -0.010200379   3.939599595
Fe      -3.252430978   2.325628472   3.939067214
S       -0.404003230   1.158638684   5.865909000
H        0.542704829   1.449424373   6.821213465
H       -1.345386890   0.867799197   6.826430295
CELL_PARAMETERS
   0.490604430474E+01   0.000000000000E+00   0.000000000000E+00
  -0.163534810158E+01   0.462546292891E+01   0.000000000000E+00
   0.0                  0.0                 20.500000
K_POINTS (automatic)
4 4 1 0 0 0
