 &projwfc
    prefix='Fe_100_2x2_HO_FH_O_SB_0.25ML'
    outdir='./results_Fe_100_2x2_HO_FH_O_SB_0.25ML_dos'
    filpdos='Fe_100_2x2_HO_FH_O_SB_0.25ML'
    DeltaE=0.01
    ngauss=0
    degauss=0.01
    Emin=-50.0, Emax=50.0
 /
