 &projwfc
    prefix='Fe_110_2x2_H2S_top_25ML'
    outdir='./results_Fe_110_2x2_dos'
    filpdos='Fe_110_2x2'
    DeltaE=0.01
    ngauss=0
    degauss=0.01
    Emin=-50.0, Emax=50.0
 /
