&control
    calculation='relax'
    restart_mode='from_scratch',
    pseudo_dir = '/work/e05/e05/ablar/QE_PSEUDO',
    outdir='./results_Fe_110_2x2_dos'
    prefix='Fe_110_2x2'
    wf_collect = .true.
    tprnfor = .true.
    tstress=.true.
    nstep=1000
    etot_conv_thr=1.0D-5
    forc_conv_thr=1.0D-4
    verbosity='high'
    disk_io='default'
    max_seconds=86000

 /
 &system
    ibrav=0,
    celldm(1)=1.889726878
    nat=20 ,
    ntyp= 1,
    ecutwfc = 95, ecutrho = 800,
    occupations='smearing', smearing='mv', degauss=0.04,
    nspin=2,
    starting_magnetization(1)= 0.6
    input_DFT='PBE'
    lda_plus_u = .true.,
    Hubbard_U(1) = 1.d-10,
 /
 &electrons
    diagonalization='david'
    electron_maxstep=1000
    conv_thr = 1.0e-8
    mixing_beta = 0.5
    mixing_mode='local-TF'
 /
 &ions
 /
 &cell
   press=0.0
   press_conv_thr=0.1
 /
ATOMIC_SPECIES
Fe 55.85 Fe.pbe-spn-kjpaw_psl.0.2.1.UPF
S  32 S.pbe-n-kjpaw_psl.0.1.UPF
H  1  H.pbe-kjpaw_psl.0.1.upf
ATOMIC_POSITIONS (angstrom)
Fe       0.000000000   0.000000000  -4.005768401    0   0   0
Fe      -0.817674051   2.312731465  -4.005768401    0   0   0
Fe       2.453022152  -0.000000000  -4.005768401    0   0   0
Fe      -3.270696203   2.312731465  -4.005768401    0   0   0
Fe       0.817674051   1.156365732  -2.002884200    0   0   0
Fe      -0.817674051  -1.156365732  -2.002884200    0   0   0
Fe       1.635348102  -1.156365732  -2.002884200    0   0   0
Fe      -1.635348102   1.156365732  -2.002884200    0   0   0
Fe       0.000000000   0.000000000   0.000000000    0   0   0
Fe      -0.817674051   2.312731465   0.000000000    0   0   0
Fe       2.453022152  -0.000000000   0.000000000    0   0   0
Fe      -3.270696203   2.312731465   0.000000000    0   0   0
Fe       0.817674624   1.156366202   1.980425778
Fe      -0.817674624  -1.156366202   1.980425778
Fe       1.635348516  -1.156366427   1.980435189
Fe      -1.635348516   1.156366427   1.980435189
Fe       0.000000000   0.000000000   3.973347245
Fe      -0.817674051   2.312731465   3.973352017
Fe       2.453022152  -0.000000000   3.973352385
Fe      -3.270696203   2.312731465   3.973348614
CELL_PARAMETERS
   0.490604430474E+01   0.000000000000E+00   0.000000000000E+00
  -0.163534810158E+01   0.462546292891E+01   0.000000000000E+00
   0.0                  0.0                 20.500000
K_POINTS (automatic)
4 4 1 0 0 0
